# Nodes
set N := 1 2 3 4 5 6 7 8;
# Commodities
set K := A B C;

# Arcs
set ARCS :=
(1,2) (1,3) (2,4) (2,5) (3,5) (3,6)
(4,5) (4,7) (5,6) (5,7) (6,7) (6,8)
(7,8) (2,3) (1,4) (3,4) (5,8)
(1,5) (4,6) (2,6);

# Arc capacities
param capacity:=
1 2 15
1 3 10
2 4 12
2 5 10
3 5 5
3 6 8
4 5 7
4 7 10
5 6 10
5 7 5
6 7 15
6 8 12
7 8 10
2 3 5
1 4 6
3 4 4
5 8 10
1 5 8
4 6 5
2 6 7;

# Source-Sink

param supply:
    1 2 3 4 5 6 7 8:=
A   1 0 0 0 0 0 0 -1
B   0 1 0 0 0 0 -1 0
C   0 0 1 0 0 0 0 -1;
